experiments/knapsack_bounded/knapsack_bounded_20_2.mps
NAME
ROWS
 N  OBJ
 L  c1
 L  c2
 L  c3
 L  c4
 L  c5
 L  c6
 L  c7
 L  c8
 L  c9
 L  c10
 L  c11
 L  c12
 L  c13
 L  c14
 L  c15
 L  c16
 L  c17
 L  c18
 L  c19
 L  c20
 L  c21
COLUMNS
    MARKER    'MARKER'                 'INTORG'
    x[1]      c1        577
    x[1]      c2        1
    x[1]      OBJ       -550
    x[2]      c1        699
    x[2]      c3        1
    x[2]      OBJ       -112
    x[3]      c1        212
    x[3]      c4        1
    x[3]      OBJ       -164
    x[4]      c1        42
    x[4]      c5        1
    x[4]      OBJ       -521
    x[5]      c1        921
    x[5]      c6        1
    x[5]      OBJ       -144
    x[6]      c1        483
    x[6]      c7        1
    x[6]      OBJ       -425
    x[7]      c1        938
    x[7]      c8        1
    x[7]      OBJ       -459
    x[8]      c1        623
    x[8]      c9        1
    x[8]      OBJ       -122
    x[9]      c1        428
    x[9]      c10       1
    x[9]      OBJ       -470
    x[10]     c1        519
    x[10]     c11       1
    x[10]     OBJ       -33
    x[11]     c1        368
    x[11]     c12       1
    x[11]     OBJ       -178
    x[12]     c1        264
    x[12]     c13       1
    x[12]     OBJ       -149
    x[13]     c1        146
    x[13]     c14       1
    x[13]     OBJ       -573
    x[14]     c1        195
    x[14]     c15       1
    x[14]     OBJ       -51
    x[15]     c1        555
    x[15]     c16       1
    x[15]     OBJ       -98
    x[16]     c1        502
    x[16]     c17       1
    x[16]     OBJ       -434
    x[17]     c1        460
    x[17]     c18       1
    x[17]     OBJ       -456
    x[18]     c1        972
    x[18]     c19       1
    x[18]     OBJ       -213
    x[19]     c1        509
    x[19]     c20       1
    x[19]     OBJ       -638
    x[20]     c1        977
    x[20]     c21       1
    x[20]     OBJ       -988
    MARKER    'MARKER'                 'INTEND'
RHS
    rhs       c1        5195
    rhs       c2        9
    rhs       c3        5
    rhs       c4        6
    rhs       c5        7
    rhs       c6        4
    rhs       c7        2
    rhs       c8        6
    rhs       c9        6
    rhs       c10       2
    rhs       c11       8
    rhs       c12       4
    rhs       c13       4
    rhs       c14       9
    rhs       c15       9
    rhs       c16       8
    rhs       c17       7
    rhs       c18       10
    rhs       c19       4
    rhs       c20       9
    rhs       c21       7
RANGES
BOUNDS
 LO bounds    x[1]      0
 PL bounds    x[1]
 LO bounds    x[2]      0
 PL bounds    x[2]
 LO bounds    x[3]      0
 PL bounds    x[3]
 LO bounds    x[4]      0
 PL bounds    x[4]
 LO bounds    x[5]      0
 PL bounds    x[5]
 LO bounds    x[6]      0
 PL bounds    x[6]
 LO bounds    x[7]      0
 PL bounds    x[7]
 LO bounds    x[8]      0
 PL bounds    x[8]
 LO bounds    x[9]      0
 PL bounds    x[9]
 LO bounds    x[10]     0
 PL bounds    x[10]
 LO bounds    x[11]     0
 PL bounds    x[11]
 LO bounds    x[12]     0
 PL bounds    x[12]
 LO bounds    x[13]     0
 PL bounds    x[13]
 LO bounds    x[14]     0
 PL bounds    x[14]
 LO bounds    x[15]     0
 PL bounds    x[15]
 LO bounds    x[16]     0
 PL bounds    x[16]
 LO bounds    x[17]     0
 PL bounds    x[17]
 LO bounds    x[18]     0
 PL bounds    x[18]
 LO bounds    x[19]     0
 PL bounds    x[19]
 LO bounds    x[20]     0
 PL bounds    x[20]
ENDATA
